CPXPARAM_Simplex_Display                         2
CPXPARAM_TimeLimit                               7200
CPXPARAM_Read_APIEncoding                        "*"
CPXPARAM_Output_CloneLog                         1
CPXPARAM_MIP_Tolerances_MIPGap                   0.035000000000000003
CPXPARAM_MIP_Interval                            20
CPXPARAM_MIP_Strategy_VariableSelect             1
CPXPARAM_Barrier_Display                         2
Tried aggregator 1 time.
MIP Presolve eliminated 172 rows and 2 columns.
MIP Presolve modified 8 coefficients.
Reduced MIP has 724 rows, 307 columns, and 2600 nonzeros.
Reduced MIP has 273 binaries, 0 generals, 0 SOSs, and 0 indicators.
Presolve time = 0.00 sec. (1.93 ticks)
Probing time = 0.00 sec. (1.52 ticks)
Cover probing fixed 0 vars, tightened 19 bounds.
Tried aggregator 1 time.
MIP Presolve modified 100 coefficients.
Reduced MIP has 724 rows, 307 columns, and 2600 nonzeros.
Reduced MIP has 273 binaries, 0 generals, 0 SOSs, and 0 indicators.
Presolve time = 0.00 sec. (1.48 ticks)
Probing fixed 0 vars, tightened 16 bounds.
Probing time = 0.01 sec. (1.63 ticks)
Cover probing fixed 0 vars, tightened 19 bounds.
Clique table members: 818.
MIP emphasis: balance optimality and feasibility.
MIP search method: dynamic search.
Parallel mode: deterministic, using up to 32 threads.
Root relaxation solution time = 0.00 sec. (2.01 ticks)

        Nodes                                         Cuts/
   Node  Left     Objective  IInf  Best Integer    Best Bound    ItCnt     Gap

      0     0      101.9127    33                    101.9127       65         
      0     0      102.6660    33                    Cuts: 86      118         
      0     0      103.0552    39                   Cuts: 139      180         
      0     0      103.1301    34                   Cuts: 164      205         
      0     0      103.1373    30                    Cuts: 95      227         
      0     0      103.1373    30                 Impl Bds: 4      231         
      0     2      103.1373    30                    103.1630      231         
Elapsed time = 1.99 sec. (128.84 ticks, tree = 0.01 MB, solutions = 0)
     40    30      103.5058    33                    103.1871     1083         
    740   557      104.2705    20                    103.2254    19475         
   1220   774      104.9666    14                    103.2254    24208         
   1800  1006      103.3544    29                    103.2254    30683         
Elapsed time = 3.26 sec. (200.02 ticks, tree = 2.34 MB, solutions = 0)
   2040  1249    infeasible                          103.2254    38597         
   2060  1307      104.2695    19                    103.2254    40858         
   2080  1362      105.0660    20                    103.2254    42466         
   2100  1300      105.4678    16                    103.2254    40345         
   2140  1363      103.6130    25                    103.2254    42593         
   3040  1786      104.0880    14                    103.3704    55895         
   3120  1787    infeasible                          103.3704    55944         
   3280  1900    infeasible                          103.3733    58688         
   3680  2167      104.0341    12                    103.3828    65072         
   3720  2276    infeasible                          103.3916    67661         
   3820  2231      105.1042    18                    103.3916    66465         
   3860  2084    infeasible                          103.3916    62936         
   3980  2175    infeasible                          103.3916    65215         
   4020  2186      104.1505    21                    103.3916    65501         
   4620  2520    infeasible                          103.4215    72849         
   4700  2567      106.0502    12                    103.4215    74039         
   4740  2631      104.1264    35                    103.4215    75395         
   5220  3132      105.3296    23                    103.4351    85646         
   5280  3337      104.2580    25                    103.4351    91307         
   5320  3485      104.4940    25                    103.4351    95776         
   5500  3639      104.6738    10                    103.4351    99825         
   6160  4181      103.7482    15                    103.4351   113546         
   6240  3803      105.4682    11                    103.4351   104777         
   7660  5041      103.5535    43                    103.4748   135283         
   8080  5400      106.0245     9                    103.4945   146770         
   8400  5470      103.9636    28                    103.4945   148945         
Elapsed time = 4.43 sec. (434.40 ticks, tree = 42.20 MB, solutions = 0)
*  8401+ 4041                          106.5530      103.4945             2.87%
GUB cover cuts applied:  2
Clique cuts applied:  10
Cover cuts applied:  3
Implied bound cuts applied:  13
Flow cuts applied:  1
Mixed integer rounding cuts applied:  3
Zero-half cuts applied:  9
Multi commodity flow cuts applied:  1
Lift and project cuts applied:  35
Gomory fractional cuts applied:  6

Root node processing (before b&c):
  Real time             =    1.79 sec. (128.57 ticks)
Parallel b&c, 32 threads:
  Real time             =    7.87 sec. (750.60 ticks)
  Sync time (average)   =    1.94 sec.
  Wait time (average)   =    0.02 sec.
                          ------------
Total (root+branch&cut) =    9.66 sec. (879.17 ticks)
